c Maximum weighted clique instances generated from exactcolors.
c cutoff: 3063457.
c A clique of value > scalef (3063457) defines an improving stable sets for coloring.
p edge 14 32
e 1 3
e 1 4
e 1 6
e 1 7
e 1 8
e 1 10
e 2 3
e 2 5
e 2 6
e 2 7
e 2 8
e 2 11
e 3 10
e 3 11
e 3 12
e 3 13
e 3 14
e 4 5
e 4 6
e 4 7
e 4 8
e 4 10
e 5 6
e 5 7
e 5 8
e 5 11
e 6 7
e 6 8
e 6 12
e 7 8
e 7 13
e 8 14
n 1 612691
n 2 612691
n 3 612691
n 4 612691
n 5 612691
n 6 612691
n 7 612691
n 8 612691
n 9 3063456
n 10 1838074
n 11 1838074
n 12 2450765
n 13 2450765
n 14 2450765
